Route #1: 14 50 11 19 7 41
Route #2: 64 34 6 36 1 49 35 20 38
Route #3: 53 44 40 42 39 4 46
Route #4: 62 61 30 57 3 60
Route #5: 9 48 25 21 63
Route #6: 13 28 5
Route #7: 58 15 56 55 54 22 52 45 12
Route #8: 33 47 2 26 18 31
Route #9: 32 65 37 23 8 51 66
Route #10: 16 43 27 59 24 29 10 17
Cost 1039
Time 0.101154
